# Solution for model micodag
# Objective value = 1.6427187574283753e+01
s_0_1 0
s_1_0 0
s_0_2 0
s_2_0 2.3495454660050807e-01
s_0_3 0
s_3_0 2.1658513827007564e-01
s_1_8 0
s_8_1 1.4171485111545561e+00
s_3_4 0
s_4_3 3.1320102804818717e-01
s_3_5 0
s_5_3 0
s_3_6 0
s_6_3 0
s_3_7 0
s_7_3 0
s_3_9 0
s_9_3 0
s_3_10 0
s_10_3 4.6895418283198076e-01
s_3_13 0
s_13_3 0.710989835753919
s_4_5 0
s_5_4 3.0201042688088720e-01
s_4_6 0
s_6_4 6.4984057644499238e-01
s_4_7 0
s_7_4 1.2124498723883841e+00
s_5_10 0
s_10_5 1.8559675200793802e-01
s_6_7 0
s_7_6 0
s_6_9 0
s_9_6 0
s_6_10 0
s_10_6 0
s_6_13 0
s_13_6 6.7787129767256893e-01
s_7_9 0
s_9_7 0
s_7_10 0
s_10_7 0
s_7_13 0
s_13_7 6.8120027150128859e-01
s_8_9 0
s_9_8 6.4008604846594253e-01
s_9_10 0
s_10_9 0
s_9_13 0
s_13_9 3.2518074745093895e-01
s_10_11 0
s_11_10 5.3187879755521070e+00
s_10_12 0
s_12_10 5.3187879755521070e+00
s_10_13 0
s_13_10 5.3187879755521070e+00
s_0_0 6.6079519935138986e-01
s_1_1 9.7816756268074823e-01
s_2_2 6.3971485866692390e-01
s_3_3 0.675976776625415
s_4_4 8.7330874784542090e-01
s_5_5 7.1382528849705640e-01
s_6_6 9.9254221045472324e-01
s_7_7 1.8889122295723206e+00
s_8_8 2.0651014146776880e+00
s_9_9 0.869990028025164
s_10_10 5.3187879755521070e+00
s_11_11 6.6972427408160673e-01
s_12_12 9.8125929319704053e-01
s_13_13 1.0063942740599705e+00
Gamma_0_0 8.1289310450476260e-01
Gamma_0_1 0
Gamma_0_2 0
Gamma_0_3 0
Gamma_0_4 0
Gamma_0_5 0
Gamma_0_6 0
Gamma_0_7 0
Gamma_0_8 0
Gamma_0_9 0
Gamma_0_10 0
Gamma_0_11 0
Gamma_0_12 0
Gamma_0_13 0
Gamma_1_0 0
Gamma_1_1 9.8902354000334536e-01
Gamma_1_2 0
Gamma_1_3 0
Gamma_1_4 0
Gamma_1_5 0
Gamma_1_6 0
Gamma_1_7 0
Gamma_1_8 0
Gamma_1_9 0
Gamma_1_10 0
Gamma_1_11 0
Gamma_1_12 0
Gamma_1_13 0
Gamma_2_0 -4.8472110187251877e-01
Gamma_2_1 0
Gamma_2_2 7.9982176681240968e-01
Gamma_2_3 0
Gamma_2_4 0
Gamma_2_5 0
Gamma_2_6 0
Gamma_2_7 0
Gamma_2_8 0
Gamma_2_9 0
Gamma_2_10 0
Gamma_2_11 0
Gamma_2_12 0
Gamma_2_13 0
Gamma_3_0 0.46538708433956
Gamma_3_1 0
Gamma_3_2 0
Gamma_3_3 8.2217806868428212e-01
Gamma_3_4 0
Gamma_3_5 0
Gamma_3_6 0
Gamma_3_7 0
Gamma_3_8 0
Gamma_3_9 0
Gamma_3_10 0
Gamma_3_11 0
Gamma_3_12 0
Gamma_3_13 0
Gamma_4_0 0
Gamma_4_1 0
Gamma_4_2 0
Gamma_4_3 -0.559643661670699
Gamma_4_4 9.3450989713615229e-01
Gamma_4_5 0
Gamma_4_6 0
Gamma_4_7 0
Gamma_4_8 0
Gamma_4_9 0
Gamma_4_10 0
Gamma_4_11 0
Gamma_4_12 0
Gamma_4_13 0
Gamma_5_0 0
Gamma_5_1 0
Gamma_5_2 0
Gamma_5_3 0
Gamma_5_4 -5.4955475330569925e-01
Gamma_5_5 8.4488181924873818e-01
Gamma_5_6 0
Gamma_5_7 0
Gamma_5_8 0
Gamma_5_9 0
Gamma_5_10 0
Gamma_5_11 0
Gamma_5_12 0
Gamma_5_13 0
Gamma_6_0 0
Gamma_6_1 0
Gamma_6_2 0
Gamma_6_3 0
Gamma_6_4 8.0612689847504349e-01
Gamma_6_5 0
Gamma_6_6 0.996264126853278
Gamma_6_7 0
Gamma_6_8 0
Gamma_6_9 0
Gamma_6_10 0
Gamma_6_11 0
Gamma_6_12 0
Gamma_6_13 0
Gamma_7_0 0
Gamma_7_1 0
Gamma_7_2 0
Gamma_7_3 0
Gamma_7_4 -1.1011130152660920e+00
Gamma_7_5 0
Gamma_7_6 0
Gamma_7_7 1.3743770332671896e+00
Gamma_7_8 0
Gamma_7_9 0
Gamma_7_10 0
Gamma_7_11 0
Gamma_7_12 0
Gamma_7_13 0
Gamma_8_0 0
Gamma_8_1 1.1904404693870907e+00
Gamma_8_2 0
Gamma_8_3 0
Gamma_8_4 0
Gamma_8_5 0
Gamma_8_6 0
Gamma_8_7 0
Gamma_8_8 1.4370460725661123e+00
Gamma_8_9 0
Gamma_8_10 0
Gamma_8_11 0
Gamma_8_12 0
Gamma_8_13 0
Gamma_9_0 0
Gamma_9_1 0
Gamma_9_2 0
Gamma_9_3 0
Gamma_9_4 0
Gamma_9_5 0
Gamma_9_6 0
Gamma_9_7 0
Gamma_9_8 8.0005377848363612e-01
Gamma_9_9 9.3273255975395475e-01
Gamma_9_10 0
Gamma_9_11 0
Gamma_9_12 0
Gamma_9_13 0
Gamma_10_0 0
Gamma_10_1 0
Gamma_10_2 0
Gamma_10_3 -6.8480229470408593e-01
Gamma_10_4 0
Gamma_10_5 -4.3080941494811709e-01
Gamma_10_6 0
Gamma_10_7 0
Gamma_10_8 0
Gamma_10_9 0
Gamma_10_10 8.1388537867139310e-01
Gamma_10_11 0
Gamma_10_12 0
Gamma_10_13 0
Gamma_11_0 0
Gamma_11_1 0
Gamma_11_2 0
Gamma_11_3 0
Gamma_11_4 0
Gamma_11_5 0
Gamma_11_6 0
Gamma_11_7 0
Gamma_11_8 0
Gamma_11_9 0
Gamma_11_10 -4.6630381623077449e-01
Gamma_11_11 8.1836683344427352e-01
Gamma_11_12 0
Gamma_11_13 0
Gamma_12_0 0
Gamma_12_1 0
Gamma_12_2 0
Gamma_12_3 0
Gamma_12_4 0
Gamma_12_5 0
Gamma_12_6 0
Gamma_12_7 0
Gamma_12_8 0
Gamma_12_9 0
Gamma_12_10 -8.2828905872919334e-01
Gamma_12_11 0
Gamma_12_12 9.9058532857954318e-01
Gamma_12_13 0
Gamma_13_0 0
Gamma_13_1 0
Gamma_13_2 0
Gamma_13_3 8.4320213220432516e-01
Gamma_13_4 0
Gamma_13_5 0
Gamma_13_6 -8.2332939803736516e-01
Gamma_13_7 8.2534857575529252e-01
Gamma_13_8 0
Gamma_13_9 -5.7024621651611174e-01
Gamma_13_10 -8.2550104561763293e-01
Gamma_13_11 0
Gamma_13_12 0
Gamma_13_13 1.0031920424624448e+00
psi_0 5
psi_1 3
psi_2 0
psi_3 4
psi_4 3
psi_5 2
psi_6 1
psi_7 1
psi_8 2
psi_9 1
psi_10 1
psi_11 0
psi_12 0
psi_13 0
g_0_0 0
g_0_1 0
g_0_2 0
g_0_3 0
g_0_4 0
g_0_5 0
g_0_6 0
g_0_7 0
g_0_8 0
g_0_9 0
g_0_10 0
g_0_11 0
g_0_12 0
g_0_13 0
g_1_0 0
g_1_1 0
g_1_2 0
g_1_3 0
g_1_4 0
g_1_5 0
g_1_6 0
g_1_7 0
g_1_8 0
g_1_9 0
g_1_10 0
g_1_11 0
g_1_12 0
g_1_13 0
g_2_0 1
g_2_1 0
g_2_2 0
g_2_3 0
g_2_4 0
g_2_5 0
g_2_6 0
g_2_7 0
g_2_8 0
g_2_9 0
g_2_10 0
g_2_11 0
g_2_12 0
g_2_13 0
g_3_0 1
g_3_1 0
g_3_2 0
g_3_3 0
g_3_4 0
g_3_5 0
g_3_6 0
g_3_7 0
g_3_8 0
g_3_9 0
g_3_10 0
g_3_11 0
g_3_12 0
g_3_13 0
g_4_0 0
g_4_1 0
g_4_2 0
g_4_3 1
g_4_4 0
g_4_5 0
g_4_6 0
g_4_7 0
g_4_8 0
g_4_9 0
g_4_10 0
g_4_11 0
g_4_12 0
g_4_13 0
g_5_0 0
g_5_1 0
g_5_2 0
g_5_3 0
g_5_4 1
g_5_5 0
g_5_6 0
g_5_7 0
g_5_8 0
g_5_9 0
g_5_10 0
g_5_11 0
g_5_12 0
g_5_13 0
g_6_0 0
g_6_1 0
g_6_2 0
g_6_3 0
g_6_4 1
g_6_5 0
g_6_6 0
g_6_7 0
g_6_8 0
g_6_9 0
g_6_10 0
g_6_11 0
g_6_12 0
g_6_13 0
g_7_0 0
g_7_1 0
g_7_2 0
g_7_3 0
g_7_4 1
g_7_5 0
g_7_6 0
g_7_7 0
g_7_8 0
g_7_9 0
g_7_10 0
g_7_11 0
g_7_12 0
g_7_13 0
g_8_0 0
g_8_1 1
g_8_2 0
g_8_3 0
g_8_4 0
g_8_5 0
g_8_6 0
g_8_7 0
g_8_8 0
g_8_9 0
g_8_10 0
g_8_11 0
g_8_12 0
g_8_13 0
g_9_0 0
g_9_1 0
g_9_2 0
g_9_3 0
g_9_4 0
g_9_5 0
g_9_6 0
g_9_7 0
g_9_8 1
g_9_9 0
g_9_10 0
g_9_11 0
g_9_12 0
g_9_13 0
g_10_0 0
g_10_1 0
g_10_2 0
g_10_3 1
g_10_4 0
g_10_5 1
g_10_6 0
g_10_7 0
g_10_8 0
g_10_9 0
g_10_10 0
g_10_11 0
g_10_12 0
g_10_13 0
g_11_0 0
g_11_1 0
g_11_2 0
g_11_3 0
g_11_4 0
g_11_5 0
g_11_6 0
g_11_7 0
g_11_8 0
g_11_9 0
g_11_10 1
g_11_11 0
g_11_12 0
g_11_13 0
g_12_0 0
g_12_1 0
g_12_2 0
g_12_3 0
g_12_4 0
g_12_5 0
g_12_6 0
g_12_7 0
g_12_8 0
g_12_9 0
g_12_10 1
g_12_11 0
g_12_12 0
g_12_13 0
g_13_0 0
g_13_1 0
g_13_2 0
g_13_3 1
g_13_4 0
g_13_5 0
g_13_6 1
g_13_7 1
g_13_8 0
g_13_9 1
g_13_10 1
g_13_11 0
g_13_12 0
g_13_13 0
T_0 4.1431132170582430e-01
T_1 2.2074291638560339e-02
T_2 4.4673273524081480e-01
T_3 3.9159655763370438e-01
T_4 1.3546612261339419e-01
T_5 3.3711704056672431e-01
T_6 7.4857378997279511e-03
T_7 -6.3600112347606341e-01
T_8 -7.2517933643113963e-01
T_9 1.3927352943923665e-01
T_10 4.1187147067520868e-01
T_11 4.0088918252081385e-01
T_12 1.8918539156317138e-02
T_13 -0.0063739174208024
